NAME : portcgen-23-23
COMMENT : portcgen N=23, seed=23
TYPE : TSP
DIMENSION : 23
EDGE_WEIGHT_TYPE : EUC_2D
NODE_COORD_SECTION
1 129954 -30356
2 53928 47488
3 -74857 81479
4 217944 11820
5 344312 48246
6 249315 278768
7 436625 -237662
8 -110097 -31143
9 359339 -94998
10 74493 -152108
11 78619 11992
12 81267 -3264
13 -301249 -251870
14 -144104 -83239
15 -21423 -95084
16 6908 -237150
17 -277927 -130949
18 -171384 -49914
19 -108058 116290
20 -184581 43319
21 202843 157982
22 165836 -141283
23 -59274 -120746
